1 39 22 44 10 43 69 41 15 24 56 4 50 70 46 28 35 49 19 76 40 23 51 9 2 42 32 73 8 55 68 48 16 13 75 17 31 61 45 66 20 64 72 67 38 59 34 11 0 79 14 37 36 58 52 12 60 5 47 25 26 21 33 3 78 71 29 18 74 7 6 77 54 27 30 65 57 63 53 62